p wcnf 123 246 247 
1 16 -114 0 
1 109 112 0 
1 55 -36 0 
1 -102 -12 0 
1 40 -98 0 
1 65 122 0 
1 -80 117 0 
1 40 52 0 
1 78 -20 0 
1 -59 37 0 
1 110 65 0 
1 -30 102 0 
1 -39 18 0 
1 73 -119 0 
1 -13 -61 0 
1 -101 27 0 
1 -39 -78 0 
1 -117 -38 0 
1 86 -31 0 
1 -49 -89 0 
1 6 -15 0 
1 34 -111 0 
1 -60 -33 0 
1 26 36 0 
1 -121 -112 0 
1 39 97 0 
1 76 53 0 
1 -22 -65 0 
1 45 47 0 
1 -10 97 0 
1 49 86 0 
1 84 -90 0 
1 -23 61 0 
1 89 83 0 
1 -51 -88 0 
1 -57 24 0 
1 14 -33 0 
1 28 62 0 
1 -4 117 0 
1 96 86 0 
1 103 90 0 
1 -9 17 0 
1 -6 71 0 
1 -33 43 0 
1 -24 80 0 
1 -46 15 0 
1 88 -16 0 
1 -5 19 0 
1 63 114 0 
1 3 12 0 
1 121 2 0 
1 -23 -45 0 
1 11 -36 0 
1 114 -56 0 
1 -94 -83 0 
1 114 123 0 
1 74 -21 0 
1 -48 68 0 
1 87 49 0 
1 108 46 0 
1 7 -82 0 
1 -102 113 0 
1 104 49 0 
1 75 -7 0 
1 -16 10 0 
1 -5 98 0 
1 8 54 0 
1 -41 35 0 
1 -25 46 0 
1 38 45 0 
1 114 118 0 
1 -51 37 0 
1 -114 98 0 
1 61 -18 0 
1 -60 -103 0 
1 -86 115 0 
1 26 -112 0 
1 -71 23 0 
1 -73 83 0 
1 15 -48 0 
1 123 23 0 
1 79 60 0 
1 -109 -54 0 
1 -112 42 0 
1 60 48 0 
1 19 35 0 
1 -35 34 0 
1 70 32 0 
1 -79 66 0 
1 -47 34 0 
1 -104 93 0 
1 63 -38 0 
1 65 25 0 
1 119 -114 0 
1 -43 -48 0 
1 76 -66 0 
1 -56 88 0 
1 -123 29 0 
1 -110 -19 0 
1 -107 -27 0 
1 -87 -104 0 
1 -27 -108 0 
1 -67 -30 0 
1 104 -43 0 
1 98 120 0 
1 103 -94 0 
1 26 52 0 
1 -58 85 0 
1 -65 -83 0 
1 -85 16 0 
1 57 -50 0 
1 -79 -50 0 
1 -31 -56 0 
1 -79 -78 0 
1 -103 17 0 
1 18 -103 0 
1 40 -121 0 
1 -66 108 0 
1 55 -1 0 
1 75 -25 0 
1 -8 -41 0 
1 94 92 0 
1 -64 116 0 
1 48 28 0 
1 52 77 0 
1 67 -108 0 
1 1 -29 0 
1 121 123 0 
1 -62 -106 0 
1 -79 101 0 
1 -29 120 0 
1 -111 106 0 
1 44 -65 0 
1 39 8 0 
1 58 -43 0 
1 -5 -24 0 
1 -47 33 0 
1 -25 121 0 
1 -19 -116 0 
1 95 -76 0 
1 -63 -115 0 
1 108 20 0 
1 118 81 0 
1 -5 -15 0 
1 -62 94 0 
1 14 -80 0 
1 41 -69 0 
1 -26 -69 0 
1 121 10 0 
1 70 -18 0 
1 47 -82 0 
1 -101 91 0 
1 -41 -36 0 
1 -122 57 0 
1 -117 -120 0 
1 44 -19 0 
1 70 -35 0 
1 43 -51 0 
1 -66 -100 0 
1 11 10 0 
1 118 25 0 
1 -34 -63 0 
1 90 48 0 
1 -50 -45 0 
1 -109 16 0 
1 -46 -104 0 
1 44 11 0 
1 -90 87 0 
1 -104 101 0 
1 -54 -53 0 
1 -64 -79 0 
1 -89 70 0 
1 27 -123 0 
1 122 81 0 
1 12 58 0 
1 54 -60 0 
1 12 77 0 
1 -5 70 0 
1 23 1 0 
1 83 -79 0 
1 -73 -108 0 
1 -42 95 0 
1 34 115 0 
1 28 -98 0 
1 -36 18 0 
1 87 -59 0 
1 -9 79 0 
1 -113 -61 0 
1 -45 -9 0 
1 -101 -19 0 
1 33 28 0 
1 36 -44 0 
1 -67 96 0 
1 -120 -58 0 
1 70 -39 0 
1 -26 -82 0 
1 -25 -60 0 
1 -92 3 0 
1 -44 15 0 
1 -116 15 0 
1 80 8 0 
1 90 -102 0 
1 108 65 0 
1 -21 -95 0 
1 -44 59 0 
1 13 7 0 
1 -84 58 0 
1 -121 -105 0 
1 94 -91 0 
1 116 102 0 
1 101 89 0 
1 -44 22 0 
1 -33 -18 0 
1 9 39 0 
1 52 -95 0 
1 -65 -48 0 
1 -7 -63 0 
1 49 112 0 
1 -46 -42 0 
1 86 22 0 
1 -30 120 0 
1 50 -53 0 
1 15 -1 0 
1 -3 39 0 
1 31 45 0 
1 -46 -34 0 
1 97 -114 0 
1 -81 111 0 
1 -10 -120 0 
1 47 -35 0 
1 10 -3 0 
1 -32 -2 0 
1 38 33 0 
1 29 -76 0 
1 16 -20 0 
1 32 -89 0 
1 106 -104 0 
1 115 -66 0 
1 -122 -119 0 
1 -45 -52 0 
1 -110 -109 0 
1 82 52 0 
1 -113 -71 0 
1 102 -14 0 
1 47 79 0 
1 -90 114 0 
